c 
c G(k,n,p) graph
c graph gen seed     : 213987
c number of vertices : 80
c max number of edges: 1600
c number of classes  : 2
c edge density       : 0.400000
c edge probability   : 0.800000
c data structure     : dense
c
c           Graph Stats
c number of vertices  : 80
c nonisolated vertices: 80
c number of edges     : 1235
c edge density        : 0.390823
c max degree          : 44
c avg degree          : 30.88
c min degree          : 20
p col 80 1235
e 1 2
e 1 10
e 1 12
e 1 15
e 1 16
e 1 18
e 1 19
e 1 21
e 1 23
e 1 24
e 1 26
e 1 27
e 1 29
e 1 30
e 1 31
e 1 32
e 1 33
e 1 36
e 1 37
e 1 39
e 1 40
e 1 42
e 1 46
e 1 47
e 1 51
e 1 54
e 1 55
e 1 56
e 1 59
e 1 60
e 1 61
e 1 65
e 1 66
e 1 68
e 1 71
e 1 77
e 1 78
e 2 3
e 2 5
e 2 9
e 2 11
e 2 14
e 2 17
e 2 22
e 2 35
e 2 38
e 2 43
e 2 44
e 2 48
e 2 52
e 2 53
e 2 57
e 2 58
e 2 62
e 2 67
e 2 69
e 2 72
e 2 74
e 2 75
e 2 76
e 2 80
e 3 6
e 3 10
e 3 12
e 3 13
e 3 15
e 3 16
e 3 18
e 3 19
e 3 20
e 3 23
e 3 25
e 3 26
e 3 27
e 3 28
e 3 29
e 3 30
e 3 32
e 3 33
e 3 34
e 3 36
e 3 37
e 3 39
e 3 40
e 3 41
e 3 42
e 3 46
e 3 47
e 3 49
e 3 50
e 3 55
e 3 56
e 3 59
e 3 60
e 3 61
e 3 63
e 3 65
e 3 66
e 3 68
e 3 71
e 3 77
e 3 79
e 4 6
e 4 7
e 4 10
e 4 12
e 4 13
e 4 15
e 4 16
e 4 18
e 4 19
e 4 20
e 4 21
e 4 24
e 4 26
e 4 27
e 4 28
e 4 29
e 4 30
e 4 31
e 4 32
e 4 33
e 4 34
e 4 36
e 4 37
e 4 41
e 4 42
e 4 49
e 4 51
e 4 54
e 4 55
e 4 56
e 4 59
e 4 60
e 4 63
e 4 65
e 4 68
e 4 77
e 4 78
e 4 79
e 5 6
e 5 7
e 5 10
e 5 12
e 5 13
e 5 15
e 5 16
e 5 18
e 5 19
e 5 20
e 5 21
e 5 23
e 5 24
e 5 25
e 5 26
e 5 29
e 5 30
e 5 31
e 5 32
e 5 33
e 5 34
e 5 36
e 5 37
e 5 39
e 5 41
e 5 42
e 5 46
e 5 47
e 5 49
e 5 50
e 5 51
e 5 54
e 5 55
e 5 56
e 5 59
e 5 60
e 5 61
e 5 63
e 5 68
e 5 71
e 5 78
e 6 8
e 6 9
e 6 11
e 6 14
e 6 17
e 6 22
e 6 35
e 6 38
e 6 45
e 6 48
e 6 52
e 6 53
e 6 57
e 6 58
e 6 62
e 6 64
e 6 67
e 6 69
e 6 70
e 6 72
e 6 75
e 6 76
e 6 80
e 7 8
e 7 9
e 7 11
e 7 14
e 7 17
e 7 38
e 7 43
e 7 44
e 7 45
e 7 52
e 7 53
e 7 57
e 7 58
e 7 64
e 7 67
e 7 69
e 7 72
e 7 74
e 7 75
e 7 76
e 7 80
e 8 12
e 8 13
e 8 15
e 8 18
e 8 19
e 8 20
e 8 21
e 8 24
e 8 25
e 8 26
e 8 28
e 8 29
e 8 30
e 8 31
e 8 32
e 8 33
e 8 36
e 8 37
e 8 39
e 8 40
e 8 41
e 8 42
e 8 46
e 8 47
e 8 49
e 8 50
e 8 51
e 8 54
e 8 56
e 8 59
e 8 60
e 8 61
e 8 63
e 8 65
e 8 66
e 8 68
e 8 77
e 8 78
e 8 79
e 9 10
e 9 12
e 9 13
e 9 15
e 9 19
e 9 20
e 9 21
e 9 24
e 9 25
e 9 26
e 9 28
e 9 30
e 9 31
e 9 32
e 9 33
e 9 34
e 9 36
e 9 40
e 9 46
e 9 47
e 9 49
e 9 50
e 9 51
e 9 55
e 9 56
e 9 59
e 9 60
e 9 61
e 9 63
e 9 65
e 9 66
e 9 68
e 9 71
e 9 77
e 9 78
e 9 79
e 10 11
e 10 14
e 10 17
e 10 22
e 10 43
e 10 44
e 10 45
e 10 48
e 10 53
e 10 57
e 10 58
e 10 62
e 10 64
e 10 67
e 10 69
e 10 70
e 10 72
e 10 73
e 10 74
e 10 80
e 11 12
e 11 13
e 11 15
e 11 16
e 11 19
e 11 20
e 11 21
e 11 23
e 11 24
e 11 25
e 11 26
e 11 27
e 11 28
e 11 29
e 11 30
e 11 32
e 11 33
e 11 36
e 11 39
e 11 41
e 11 42
e 11 46
e 11 50
e 11 51
e 11 54
e 11 55
e 11 56
e 11 59
e 11 60
e 11 61
e 11 63
e 11 65
e 11 66
e 11 68
e 11 71
e 11 77
e 11 78
e 11 79
e 12 14
e 12 17
e 12 22
e 12 35
e 12 38
e 12 43
e 12 44
e 12 48
e 12 52
e 12 53
e 12 57
e 12 58
e 12 62
e 12 64
e 12 67
e 12 69
e 12 70
e 12 72
e 12 73
e 12 74
e 12 75
e 12 76
e 13 14
e 13 17
e 13 22
e 13 35
e 13 38
e 13 43
e 13 44
e 13 45
e 13 48
e 13 57
e 13 58
e 13 62
e 13 67
e 13 69
e 13 70
e 13 73
e 13 74
e 13 75
e 13 76
e 13 80
e 14 16
e 14 18
e 14 19
e 14 21
e 14 23
e 14 24
e 14 25
e 14 26
e 14 27
e 14 29
e 14 30
e 14 31
e 14 33
e 14 34
e 14 36
e 14 37
e 14 39
e 14 40
e 14 41
e 14 42
e 14 46
e 14 47
e 14 49
e 14 50
e 14 51
e 14 55
e 14 59
e 14 61
e 14 63
e 14 65
e 14 68
e 14 71
e 14 77
e 14 79
e 15 17
e 15 22
e 15 35
e 15 38
e 15 43
e 15 44
e 15 45
e 15 48
e 15 52
e 15 57
e 15 58
e 15 62
e 15 64
e 15 67
e 15 69
e 15 73
e 15 74
e 15 75
e 15 80
e 16 22
e 16 35
e 16 38
e 16 43
e 16 44
e 16 45
e 16 48
e 16 52
e 16 53
e 16 57
e 16 58
e 16 62
e 16 64
e 16 67
e 16 69
e 16 70
e 16 73
e 16 74
e 16 76
e 16 80
e 17 18
e 17 19
e 17 20
e 17 21
e 17 23
e 17 24
e 17 25
e 17 26
e 17 28
e 17 29
e 17 31
e 17 33
e 17 34
e 17 36
e 17 39
e 17 40
e 17 41
e 17 42
e 17 46
e 17 47
e 17 50
e 17 51
e 17 55
e 17 56
e 17 59
e 17 60
e 17 61
e 17 63
e 17 65
e 17 68
e 17 71
e 17 77
e 17 78
e 17 79
e 18 22
e 18 35
e 18 38
e 18 43
e 18 44
e 18 45
e 18 48
e 18 52
e 18 57
e 18 58
e 18 62
e 18 64
e 18 69
e 18 70
e 18 72
e 18 73
e 18 75
e 18 76
e 18 80
e 19 22
e 19 35
e 19 43
e 19 44
e 19 45
e 19 52
e 19 57
e 19 58
e 19 62
e 19 64
e 19 67
e 19 69
e 19 70
e 19 72
e 19 73
e 19 74
e 19 75
e 19 80
e 20 35
e 20 44
e 20 48
e 20 52
e 20 58
e 20 62
e 20 64
e 20 67
e 20 69
e 20 70
e 20 72
e 20 75
e 20 80
e 21 22
e 21 35
e 21 38
e 21 43
e 21 44
e 21 48
e 21 52
e 21 53
e 21 57
e 21 64
e 21 67
e 21 69
e 21 70
e 21 72
e 21 73
e 21 74
e 21 75
e 21 80
e 22 23
e 22 24
e 22 25
e 22 26
e 22 27
e 22 28
e 22 29
e 22 30
e 22 32
e 22 33
e 22 34
e 22 36
e 22 37
e 22 39
e 22 40
e 22 41
e 22 42
e 22 46
e 22 47
e 22 49
e 22 50
e 22 51
e 22 54
e 22 55
e 22 56
e 22 59
e 22 60
e 22 61
e 22 63
e 22 68
e 22 71
e 22 77
e 22 78
e 22 79
e 23 38
e 23 43
e 23 44
e 23 45
e 23 48
e 23 52
e 23 53
e 23 57
e 23 58
e 23 62
e 23 64
e 23 69
e 23 70
e 23 72
e 23 75
e 23 76
e 23 80
e 24 35
e 24 43
e 24 44
e 24 48
e 24 53
e 24 57
e 24 58
e 24 64
e 24 67
e 24 69
e 24 70
e 24 72
e 24 73
e 24 74
e 24 76
e 24 80
e 25 35
e 25 38
e 25 43
e 25 45
e 25 52
e 25 53
e 25 57
e 25 62
e 25 64
e 25 67
e 25 69
e 25 70
e 25 73
e 25 75
e 25 76
e 26 35
e 26 38
e 26 44
e 26 45
e 26 52
e 26 53
e 26 57
e 26 58
e 26 62
e 26 69
e 26 70
e 26 72
e 26 73
e 26 74
e 26 76
e 26 80
e 27 35
e 27 38
e 27 43
e 27 44
e 27 45
e 27 48
e 27 52
e 27 53
e 27 58
e 27 64
e 27 67
e 27 69
e 27 72
e 27 73
e 27 74
e 27 76
e 28 35
e 28 38
e 28 43
e 28 44
e 28 45
e 28 48
e 28 52
e 28 58
e 28 62
e 28 67
e 28 69
e 28 70
e 28 72
e 28 74
e 28 75
e 28 76
e 28 80
e 29 35
e 29 38
e 29 43
e 29 44
e 29 45
e 29 52
e 29 53
e 29 57
e 29 58
e 29 62
e 29 64
e 29 67
e 29 69
e 29 70
e 29 73
e 29 74
e 29 75
e 29 76
e 30 38
e 30 43
e 30 44
e 30 45
e 30 48
e 30 52
e 30 53
e 30 58
e 30 64
e 30 67
e 30 69
e 30 70
e 30 72
e 30 74
e 30 75
e 30 76
e 30 80
e 31 38
e 31 43
e 31 44
e 31 45
e 31 48
e 31 53
e 31 58
e 31 67
e 31 69
e 31 70
e 31 75
e 31 76
e 31 80
e 32 35
e 32 38
e 32 43
e 32 44
e 32 45
e 32 48
e 32 52
e 32 57
e 32 58
e 32 62
e 32 64
e 32 67
e 32 69
e 32 70
e 32 72
e 32 73
e 32 74
e 32 75
e 32 80
e 33 35
e 33 38
e 33 43
e 33 44
e 33 45
e 33 52
e 33 53
e 33 57
e 33 58
e 33 64
e 33 67
e 33 69
e 33 70
e 33 73
e 33 75
e 33 76
e 33 80
e 34 35
e 34 43
e 34 44
e 34 45
e 34 48
e 34 53
e 34 57
e 34 62
e 34 67
e 34 69
e 34 74
e 34 75
e 34 76
e 34 80
e 35 36
e 35 37
e 35 39
e 35 40
e 35 41
e 35 42
e 35 46
e 35 47
e 35 49
e 35 50
e 35 54
e 35 55
e 35 56
e 35 59
e 35 61
e 35 63
e 35 65
e 35 66
e 35 71
e 35 78
e 35 79
e 36 38
e 36 44
e 36 48
e 36 52
e 36 53
e 36 57
e 36 58
e 36 64
e 36 67
e 36 69
e 36 70
e 36 72
e 36 73
e 36 75
e 36 76
e 36 80
e 37 38
e 37 43
e 37 45
e 37 53
e 37 57
e 37 58
e 37 62
e 37 64
e 37 67
e 37 69
e 37 70
e 37 72
e 37 73
e 37 74
e 37 75
e 37 76
e 37 80
e 38 39
e 38 41
e 38 46
e 38 47
e 38 49
e 38 50
e 38 54
e 38 55
e 38 56
e 38 59
e 38 60
e 38 61
e 38 63
e 38 66
e 38 71
e 38 77
e 38 78
e 38 79
e 39 43
e 39 45
e 39 48
e 39 52
e 39 58
e 39 64
e 39 67
e 39 69
e 39 70
e 39 72
e 39 74
e 39 75
e 39 76
e 39 80
e 40 43
e 40 44
e 40 45
e 40 48
e 40 52
e 40 53
e 40 57
e 40 64
e 40 67
e 40 70
e 40 72
e 40 73
e 40 74
e 40 75
e 40 76
e 40 80
e 41 43
e 41 45
e 41 52
e 41 57
e 41 58
e 41 62
e 41 64
e 41 67
e 41 70
e 41 72
e 41 74
e 41 75
e 41 76
e 41 80
e 42 43
e 42 44
e 42 52
e 42 53
e 42 57
e 42 58
e 42 62
e 42 64
e 42 69
e 42 70
e 42 72
e 42 73
e 42 74
e 42 75
e 42 76
e 42 80
e 43 46
e 43 49
e 43 50
e 43 51
e 43 55
e 43 56
e 43 59
e 43 63
e 43 65
e 43 66
e 43 68
e 43 78
e 43 79
e 44 46
e 44 47
e 44 49
e 44 50
e 44 51
e 44 54
e 44 55
e 44 56
e 44 60
e 44 61
e 44 63
e 44 65
e 44 66
e 44 68
e 44 71
e 44 77
e 44 78
e 44 79
e 45 46
e 45 47
e 45 49
e 45 50
e 45 51
e 45 55
e 45 56
e 45 59
e 45 60
e 45 61
e 45 63
e 45 65
e 45 66
e 45 68
e 45 71
e 45 78
e 45 79
e 46 52
e 46 57
e 46 58
e 46 62
e 46 64
e 46 67
e 46 69
e 46 70
e 46 74
e 46 75
e 46 76
e 46 80
e 47 48
e 47 52
e 47 57
e 47 58
e 47 64
e 47 67
e 47 69
e 47 72
e 47 73
e 47 75
e 47 76
e 47 80
e 48 49
e 48 50
e 48 51
e 48 55
e 48 56
e 48 59
e 48 60
e 48 61
e 48 63
e 48 65
e 48 66
e 48 68
e 48 71
e 48 77
e 48 78
e 48 79
e 49 52
e 49 53
e 49 57
e 49 58
e 49 62
e 49 64
e 49 67
e 49 69
e 49 70
e 49 72
e 49 74
e 49 75
e 49 76
e 49 80
e 50 52
e 50 53
e 50 57
e 50 58
e 50 62
e 50 64
e 50 69
e 50 70
e 50 73
e 50 74
e 50 75
e 51 52
e 51 53
e 51 57
e 51 64
e 51 67
e 51 69
e 51 70
e 51 72
e 51 73
e 51 74
e 51 75
e 51 76
e 51 80
e 52 54
e 52 55
e 52 56
e 52 59
e 52 61
e 52 63
e 52 65
e 52 66
e 52 68
e 52 71
e 52 78
e 52 79
e 53 54
e 53 55
e 53 56
e 53 59
e 53 60
e 53 61
e 53 63
e 53 65
e 53 66
e 53 68
e 53 71
e 53 77
e 53 78
e 53 79
e 54 58
e 54 62
e 54 64
e 54 67
e 54 69
e 54 70
e 54 72
e 54 73
e 54 74
e 54 75
e 54 76
e 55 57
e 55 58
e 55 62
e 55 64
e 55 67
e 55 70
e 55 72
e 55 73
e 55 74
e 55 75
e 55 76
e 56 57
e 56 62
e 56 64
e 56 67
e 56 70
e 56 72
e 56 73
e 56 74
e 56 75
e 56 76
e 56 80
e 57 59
e 57 60
e 57 63
e 57 65
e 57 66
e 57 68
e 57 71
e 57 77
e 57 78
e 58 59
e 58 60
e 58 61
e 58 66
e 58 68
e 58 71
e 58 77
e 58 79
e 59 64
e 59 67
e 59 73
e 59 74
e 59 75
e 59 76
e 59 80
e 60 62
e 60 64
e 60 67
e 60 69
e 60 70
e 60 72
e 60 73
e 60 74
e 60 76
e 61 62
e 61 64
e 61 67
e 61 69
e 61 70
e 61 72
e 61 73
e 61 74
e 61 75
e 61 76
e 62 63
e 62 66
e 62 68
e 62 71
e 62 77
e 62 78
e 62 79
e 63 64
e 63 69
e 63 70
e 63 72
e 63 73
e 63 74
e 63 75
e 63 80
e 64 65
e 64 66
e 64 68
e 64 71
e 64 77
e 64 78
e 64 79
e 65 67
e 65 70
e 65 72
e 65 73
e 65 74
e 65 75
e 65 76
e 66 67
e 66 69
e 66 70
e 66 73
e 66 74
e 66 75
e 66 80
e 67 68
e 67 71
e 67 77
e 67 78
e 67 79
e 68 69
e 68 70
e 68 73
e 68 74
e 68 75
e 68 76
e 68 80
e 69 71
e 69 77
e 69 78
e 69 79
e 70 71
e 70 77
e 70 78
e 71 72
e 71 75
e 71 76
e 71 80
e 72 77
e 72 79
e 73 77
e 73 79
e 74 77
e 74 78
e 75 77
e 75 78
e 75 79
e 76 79
e 77 80
e 79 80
